c b=8,c=513
p cnf 25 33
8 -16 0
8 -25 0
-8 16 0
-8 25 0
7 -15 0
7 -24 0
-7 15 0
-7 24 0
6 -14 0
6 -23 0
-6 14 0
-6 23 0
5 -13 0
5 -22 0
-5 13 0
-5 22 0
4 -12 0
4 -21 0
-4 12 0
-4 21 0
3 -11 0
3 -20 0
-3 11 0
-3 20 0
2 -10 0
2 -19 0
-2 10 0
-2 19 0
1 -9 0
1 -18 0
-1 9 0
-1 18 0
-17 0
